p tw 20 40
1 2
1 16
1 20
1 6
2 15
2 17
2 3
11 12
11 18
12 13
12 17
12 19
13 14
13 18
14 15
15 16
16 17
17 18
18 19
19 20
3 16
3 4
3 10
4 11
4 5
4 9
5 20
5 6
5 10
6 19
6 7
7 14
7 20
7 8
8 13
8 15
8 9
9 14
9 10
10 11
